Best chromatic number: 13
Best normalized colors: [1, 1, 2, 2, 3, 2, 2, 3, 2, 3, 3, 2, 4, 2, 5, 2, 6, 1, 7, 8, 2, 3, 2, 3, 3, 9, 10, 2, 1, 1, 2, 6, 2, 6, 9, 2, 2, 11, 2, 2, 7, 2, 8, 3, 3, 9, 11, 2, 4, 10, 2, 3, 11, 3, 2, 2, 8, 3, 3, 2, 12, 4, 2, 3, 2, 11, 2, 1, 11, 3, 2, 1, 2, 4, 2, 10, 3, 8, 2, 2, 2, 2, 7, 11, 7, 10, 2, 2, 2, 1, 2, 2, 3, 4, 11, 2, 1, 4, 11, 2, 2, 8, 3, 3, 3, 4, 3, 4, 2, 3, 2, 2, 2, 10, 13, 2, 3, 11, 8, 2, 2, 2, 4, 10, 2, 2, 2, 2, 2, 2, 8, 11, 12, 7, 4, 8, 5, 2, 2, 2, 2, 2, 2, 2, 3, 3, 13, 1, 2, 1, 2, 7, 2, 4, 11, 4, 2, 8, 1, 1, 6, 3, 2, 6, 9, 2, 3, 3, 2, 3, 6, 2, 1, 2, 3, 3, 3, 5, 1, 2, 2, 4, 2, 11, 3, 2, 2, 2, 2, 2, 7, 11, 2, 4, 2, 11, 10, 11, 7, 2, 2, 1, 8, 2, 3, 2, 10, 3, 4, 2, 11, 2, 3, 2, 2, 2, 2, 8, 1, 9, 3, 8, 2, 2, 2, 2, 1, 5, 4, 2, 11, 2, 3, 2, 2, 3, 8, 2, 3, 3, 4, 2, 2, 7, 2, 1, 2, 2, 3, 2, 2, 2, 1, 2, 2, 1, 7, 2, 9, 3, 10, 1, 1, 3, 2, 2, 11, 2, 1, 3, 3, 2, 2, 11, 2, 10, 12, 4, 3, 2, 3, 2, 7, 3, 11, 7, 2, 10, 2, 2, 6, 11, 2, 2, 1, 3, 5, 7, 11, 10, 2, 2, 2, 2, 3, 3, 10, 2, 3, 8, 7, 3, 3, 5, 3, 3, 11, 11, 2, 2, 1, 3, 3, 3, 2, 2, 2, 4, 10, 4, 3, 3, 2, 2, 3, 3, 2, 2, 2, 3, 10, 2, 2, 3, 7, 2, 3, 4, 11, 2, 6, 3, 9, 2, 2, 3, 1, 2, 3, 2, 1, 11, 2, 2, 3, 1, 7, 3, 4, 2, 2, 3, 3, 2, 2, 11, 2, 8, 2, 2, 4, 2, 2, 11, 4, 2, 7, 3, 2, 8, 3, 1, 1, 9, 11, 2, 11, 10, 2, 10, 11, 2, 2, 2, 1, 2, 1, 1, 2, 2, 4, 2, 2, 2, 5, 10, 2, 3, 2, 2, 2, 2, 3, 4, 3, 3, 11, 1, 3, 2, 3, 2, 2, 3, 2, 2, 3, 2, 2, 3, 2, 2, 2, 2, 3, 3, 4, 3, 2, 2, 3, 13, 5, 13, 2, 2, 3, 2, 2, 2, 3, 2, 2, 1, 2, 3, 2, 2, 2, 2, 3, 1, 1, 3, 2, 2, 4, 2, 11, 2, 11, 3, 4, 2, 2, 4, 3, 7, 2, 2, 6, 5, 2, 2, 2, 3, 6, 5, 2, 3, 1, 1, 10, 3, 2, 3, 11, 11, 2, 2, 3, 2, 11, 10, 2, 2, 2, 11, 2, 3, 1, 2, 7, 2, 3, 5, 2, 6, 4, 3, 3, 2, 2, 2, 2, 2, 2, 8, 4, 11, 2, 4, 2, 2, 1, 3, 3, 11, 8, 2, 2, 2, 2, 1, 4, 7, 11, 2, 2, 2, 2]
Total time for 30 runs: 2534.10 seconds
Average time per run: 84.47 seconds
